NAME : S-G-100-18.2693.tour
COMMENT : Length = 2693
COMMENT : Found by LKH [Keld Helsgaun] Thu May 17 23:18:20 2018
TYPE : TOUR
DIMENSION : 31
TOUR_SECTION
1
15
16
12
22
27
24
10
6
11
18
17
5
8
4
31
23
14
3
2
25
21
7
13
9
28
29
30
20
19
26
-1
EOF
